
Value of objective function: 0.10034134

Actual values of the variables:
pL1_div_from_law         0.100341
comp_pos0                       0
comp_neg0                       0
comp_pos1                       0
comp_neg1                       0
comp_pos2                       0
comp_neg2                       0
comp_pos3                       0
comp_neg3                       0
comp_pos4                       0
comp_neg4                       0
comp_pos5                       0
comp_neg5                       0
comp_pos6                0.100341
comp_neg6                       0
comp_pos7                       0
comp_neg7                       0
comp_pos8                       0
comp_neg8                       0
comp_pos9                       0
comp_neg9                       0
comp_pos10                      0
comp_neg10                      0
comp_pos11                      0
comp_neg11                      0
comp_pos12                      0
comp_neg12                      0
comp_pos13                      0
comp_neg13                      0
z_c0_t0               1.32138e+10
p0_c0_t0              1.27139e+09
p1_c0_t0               1.0423e+08
p2_c0_t0              1.14726e+10
p3_c0_t0              3.65573e+08
diff0                           0
normdiff0                       0
z_c0_t1               1.47752e+10
p0_c0_t1              1.11582e+09
p1_c0_t1              1.16885e+08
p2_c0_t1              1.27287e+10
p3_c0_t1              8.13831e+08
diff1                           0
normdiff1                       0
z_c1_t0               1.65566e+10
p0_c1_t0              1.29832e+09
p1_c1_t0              1.35265e+08
p2_c1_t0              1.49527e+10
p3_c1_t0              1.70339e+08
diff2                           0
normdiff2                       0
z_c1_t1               1.94959e+10
p0_c1_t1              1.32153e+09
p1_c1_t1              1.92432e+08
p2_c1_t1              1.77657e+10
p3_c1_t1               2.1617e+08
diff3                           0
normdiff3                       0
z_c2_t0               7.24754e+09
p0_c2_t0              4.38588e+08
p1_c2_t0              5.46506e+07
p2_c2_t0              6.60373e+09
p3_c2_t0              1.50576e+08
diff4                           0
normdiff4                       0
z_c2_t1               7.97123e+09
p0_c2_t1              3.59602e+08
p1_c2_t1              6.38795e+07
p2_c2_t1               7.3382e+09
p3_c2_t1              2.09544e+08
diff5                           0
normdiff5                       0
z_c3_t0               1.22612e+10
p0_c3_t0              7.93509e+08
p1_c3_t0              9.34316e+07
p2_c3_t0               1.2159e+10
p3_c3_t0               4.4555e+08
diff6                  1.2303e+09
normdiff6                0.100341
z_c3_t1               1.42798e+10
p0_c3_t1              9.06511e+08
p1_c3_t1              9.56852e+07
p2_c3_t1              1.26452e+10
p3_c3_t1              6.32394e+08
diff7                           0
normdiff7                       0
z_c4_t0               7.97197e+09
p0_c4_t0              3.50235e+08
p1_c4_t0              1.04551e+08
p2_c4_t0              7.43265e+09
p3_c4_t0              8.45353e+07
diff8                           0
normdiff8                       0
z_c4_t1                8.9819e+09
p0_c4_t1               3.6578e+08
p1_c4_t1              9.62536e+07
p2_c4_t1              8.41984e+09
p3_c4_t1              1.00027e+08
diff9                           0
normdiff9                       0
z_c5_t0               1.00642e+10
p0_c5_t0              6.23803e+08
p1_c5_t0              8.82169e+07
p2_c5_t0              9.30181e+09
p3_c5_t0              5.03208e+07
diff10                          0
normdiff10                      0
z_c5_t1                1.2016e+10
p0_c5_t1              4.55719e+08
p1_c5_t1              8.73811e+07
p2_c5_t1              1.12375e+10
p3_c5_t1              2.35419e+08
diff11                          0
normdiff11                      0
z_c6_t0               1.81204e+10
p0_c6_t0              1.12774e+09
p1_c6_t0              1.11448e+08
p2_c6_t0              1.67169e+10
p3_c6_t0              1.64267e+08
diff12                          0
normdiff12                      0
z_c6_t1               2.06345e+10
p0_c6_t1              1.22475e+09
p1_c6_t1              1.03172e+08
p2_c6_t1              1.91667e+10
p3_c6_t1              1.39834e+08
diff13                          0
normdiff13                      0
